NAME: kroB100
COMMENT: Quick (5min) local search tour for kroB100 (27791.47150700722)
TYPE: TOUR
DIMENSION: 100
TOUR_SECTION: 1 14 42 2 13 78 45 17 41 44 19 92 96 36 18 24 77 10 68 86 49 30 75 80 20 38 25 9 46 21 90 32 29 8 99 59 76 97 91 28 3 11 93 85 73 53 70 39 40 67 5 62 69 26 100 56 81 47 79 65 72 37 88 23 22 55 50 16 63 31 48 51 64 82 33 15 6 83 4 66 74 60 87 89 43 52 54 58 84 7 34 57 94 35 61 27 71 12 98 95 -1
EOF